Minimize
  2 x_matcha_ice_cream + 4 x_orange_sorbet
Subject To
  c1: x_orange_sorbet - x_matcha_ice_cream >= 0
  c2: 0.85 x_matcha_ice_cream - 0.15 x_orange_sorbet >= 0
  c3: 4 x_matcha_ice_cream <= 600
  c4: 3 x_orange_sorbet <= 550
End